(set-info :origin "SVCOMP13 benchmarks generated by Arie Gurfinkel")
(set-info :status unsat)
(set-logic HORN)
(declare-fun cp-rel-entry () Bool)
(declare-fun cp-rel-bb2.i.i34.i.i () Bool)
(declare-fun cp-rel-bb1.i.i (Real Real Real Real) Bool)
(assert |cp-rel-entry|)
(assert (forall ((?A Real) (?B Real) (?C Real) (?D Real) (?E Bool) )(let (($x25307 (and |cp-rel-entry| (<= ?D 0.0) (>= ?C 1.0) (<= ?C 1.0) (>= ?B 1.0) (<= ?B 1.0) (>= ?A 0.0) (<= ?A 0.0) (= ?E true) (>= ?D 0.0))))
(=> $x25307 (|cp-rel-bb1.i.i| ?A ?B ?C ?D))))
)
(assert (forall ((?A Real) (?B Real) (?C Real) (?D Real) (?E Real) (?F Real) (?G Real) (?H Real) (?I Bool) (?J Bool) (?K Bool) (?L Bool) (?M Bool) (?N Bool) (?O Real) (?P Real) (?Q Bool) (?R Bool) (?S Bool) (?T Bool) (?U Bool) (?V Bool) (?W Real) (?X Real) (?Y Bool) (?Z Bool) (?A1 Bool) (?B1 Bool) (?C1 Bool) (?D1 Bool) (?E1 Bool) (?F1 Real) (?G1 Bool) (?H1 Bool) (?I1 Bool) (?J1 Bool) (?K1 Bool) (?L1 Bool) (?M1 Real) (?N1 Real) (?O1 Bool) (?P1 Bool) (?Q1 Bool) (?R1 Bool) (?S1 Bool) (?T1 Bool) (?U1 Bool) (?V1 Bool) (?W1 Bool) (?X1 Bool) (?Y1 Bool) (?Z1 Bool) (?A2 Bool) (?B2 Bool) (?C2 Bool) (?D2 Bool) (?E2 Real) (?F2 Real) (?G2 Real) (?H2 Real) (?I2 Bool) (?J2 Bool) (?K2 Bool) (?L2 Bool) (?M2 Bool) (?N2 Bool) (?O2 Real) (?P2 Bool) (?Q2 Real) (?R2 Real) (?S2 Bool) (?T2 Real) (?U2 Real) (?V2 Bool) (?W2 Real) (?X2 Bool) (?Y2 Bool) (?Z2 Bool) (?A3 Bool) (?B3 Bool) )(let (($x409749 (|cp-rel-bb1.i.i| ?E ?F ?G ?H)))
(let (($x313176 (= ?N2 (and ?B3 ?A3))))
(let (($x258641 (or (not ?I) (and ?J ?K (not ?L)))))
(let (($x302903 (or (not ?I) ?K)))
(let (($x221844 (not ?M)))
(let (($x597559 (or $x221844 (and ?I ?N (<= ?O ?P) (>= ?O ?P)) (and ?J ?Q ?L (<= ?O ?B) (>= ?O ?B)))))
(let (($x81139 (or $x221844 (and ?N (not ?Q)) (and ?Q (not ?N)))))
(let (($x536727 (or (not ?R) (and ?M ?S (not ?T)))))
(let (($x260681 (or (not ?R) ?S)))
(let (($x644287 (not ?U)))
(let (($x373792 (or $x644287 (and ?R ?V (<= ?W ?X) (>= ?W ?X)) (and ?M ?Y ?T (<= ?W ?A) (>= ?W ?A)))))
(let (($x375246 (or $x644287 (and ?V (not ?Y)) (and ?Y (not ?V)))))
(let (($x324028 (or (not ?Z) (and ?U ?A1 ?B1))))
(let (($x103289 (or (not ?Z) ?A1)))
(let (($x539954 (not ?C1)))
(let (($x523329 (or $x539954 (and ?Z ?D1 ?E1 (<= ?F1 ?C) (>= ?F1 ?C)) (and ?U ?G1 (not ?B1) (<= ?F1 1.0) (>= ?F1 1.0)))))
(let (($x892704 (or $x539954 (and ?D1 (not ?G1)) (and ?G1 (not ?D1)))))
(let (($x873903 (or (not ?H1) (and ?C1 ?I1 (not ?J1)))))
(let (($x265533 (or (not ?H1) ?I1)))
(let (($x456088 (or (not ?K1) (and ?H1 ?L1 (<= ?M1 ?N1) (>= ?M1 ?N1)) (and ?C1 ?O1 ?J1 (<= ?M1 ?O) (>= ?M1 ?O)))))
(let (($x306929 (or (not ?K1) (and ?L1 (not ?O1)) (and ?O1 (not ?L1)))))
(let (($x305850 (or (not ?P1) (and ?K1 ?Q1 (not ?R1)))))
(let (($x571595 (or (not ?P1) ?Q1)))
(let (($x269720 (or (not ?S1) (and ?P1 ?T1 ?J1))))
(let (($x33729 (or (not ?S1) ?T1)))
(let (($x302901 (or (not ?U1) (and ?P1 ?V1 (not ?J1)))))
(let (($x207885 (or (not ?U1) ?V1)))
(let (($x37353 (or (not ?W1) (and ?S1 ?X1 ?Y1))))
(let (($x503833 (or (not ?W1) ?X1)))
(let (($x215571 (or (not ?Z1) (and ?U1 ?A2 ?B2))))
(let (($x402953 (or (not ?Z1) ?A2)))
(let (($x878445 (and ?Z ?M2 (not ?E1) (<= ?E2 0.0) (>= ?E2 0.0) (<= ?F2 ?O) (>= ?F2 ?O) (<= ?G2 0.0) (>= ?G2 0.0))))
(let (($x861600 (>= ?G2 ?D)))
(let (($x483190 (<= ?G2 ?D)))
(let (($x873562 (>= ?F2 ?M1)))
(let (($x381025 (<= ?F2 ?M1)))
(let (($x622121 (>= ?E2 ?F1)))
(let (($x512639 (<= ?E2 ?F1)))
(let (($x908238 (and ?U1 ?K2 (not ?B2) $x512639 $x622121 $x381025 $x873562 (<= ?G2 0.0) (>= ?G2 0.0))))
(let (($x258889 (not ?C2)))
(let (($x924429 (or $x258889 (and ?W1 ?D2 $x512639 $x622121 $x381025 $x873562 (<= ?G2 ?H2) (>= ?G2 ?H2)) (and ?S1 ?I2 (not ?Y1) $x512639 $x622121 $x381025 $x873562 $x483190 $x861600) (and ?Z1 ?J2 $x512639 $x622121 $x381025 $x873562 $x483190 $x861600) $x908238 (and ?K1 ?L2 ?R1 $x512639 $x622121 $x381025 $x873562 $x483190 $x861600) $x878445)))
(let (($x477834 (or $x258889 (and ?D2 (not ?I2) (not ?J2) (not ?K2) (not ?L2) (not ?M2)) (and ?I2 (not ?D2) (not ?J2) (not ?K2) (not ?L2) (not ?M2)) (and ?J2 (not ?D2) (not ?I2) (not ?K2) (not ?L2) (not ?M2)) (and ?K2 (not ?D2) (not ?I2) (not ?J2) (not ?L2) (not ?M2)) (and ?L2 (not ?D2) (not ?I2) (not ?J2) (not ?K2) (not ?M2)) (and ?M2 (not ?D2) (not ?I2) (not ?J2) (not ?K2) (not ?L2)))))
(let (($x567601 (= ?C2 true)))
(let (($x875441 (= ?L (= ?O2 0.0))))
(let (($x200028 (= ?Q2 (ite ?P2 1.0 0.0))))
(let (($x16623 (= ?T (= ?R2 0.0))))
(let (($x568670 (= ?X (ite ?S2 1.0 0.0))))
(let (($x623034 (= ?B1 (= ?T2 0.0))))
(let (($x454028 (= ?E1 (= ?U2 0.0))))
(let (($x136160 (= ?V2 (not (<= ?O 0.0)))))
(let (($x581954 (= ?W2 (+ (~ 1.0) ?O))))
(let (($x562223 (= ?N1 (ite ?V2 ?W2 ?O))))
(let (($x926815 (= ?R1 (= ?F1 0.0))))
(let (($x621779 (= ?Y1 (not (<= ?M1 1.0)))))
(let (($x355919 (= ?B2 (= ?M1 0.0))))
(let (($x158060 (= ?X2 (= ?W 0.0))))
(let (($x100587 (= ?Y2 (= ?W 0.0))))
(let (($x466098 (= ?Z2 (= ?F2 2.0))))
(let (($x399679 (= ?A3 (= ?G2 0.0))))
(let (($x229968 (= ?B3 (and ?Z2 ?Y2))))
(let (($x441350 (and (|cp-rel-bb1.i.i| ?A ?B ?C ?D) $x229968 $x399679 $x466098 $x100587 (= ?H2 (ite ?X2 1.0 ?D)) $x158060 $x355919 $x621779 $x926815 $x562223 $x581954 $x136160 (= ?J1 (= ?D 0.0)) $x454028 $x623034 $x568670 (= ?S2 (= ?A 0.0)) $x16623 (= ?P (+ ?Q2 ?B)) $x200028 (= ?P2 (not (<= 2.0 ?B))) $x875441 (>= ?H ?G2) (<= ?H ?G2) (>= ?G ?E2) (<= ?G ?E2) (>= ?F ?F2) (<= ?F ?F2) (>= ?E ?W) (<= ?E ?W) (not (= ?N2 true)) $x567601 $x477834 $x924429 $x402953 $x215571 $x503833 $x37353 $x207885 $x302901 $x33729 $x269720 $x571595 $x305850 $x306929 $x456088 $x265533 $x873903 $x892704 $x523329 $x103289 $x324028 $x375246 $x373792 $x260681 $x536727 $x81139 $x597559 $x302903 $x258641 $x313176)))
(=> $x441350 $x409749)))))))))))))))))))))))))))))))))))))))))))))))))))))))))))))))
)
(assert (forall ((?A Real) (?B Real) (?C Real) (?D Real) (?E Bool) (?F Bool) (?G Bool) (?H Bool) (?I Bool) (?J Bool) (?K Real) (?L Real) (?M Bool) (?N Bool) (?O Bool) (?P Bool) (?Q Bool) (?R Bool) (?S Real) (?T Real) (?U Bool) (?V Bool) (?W Bool) (?X Bool) (?Y Bool) (?Z Bool) (?A1 Bool) (?B1 Real) (?C1 Bool) (?D1 Bool) (?E1 Bool) (?F1 Bool) (?G1 Bool) (?H1 Bool) (?I1 Real) (?J1 Real) (?K1 Bool) (?L1 Bool) (?M1 Bool) (?N1 Bool) (?O1 Bool) (?P1 Bool) (?Q1 Bool) (?R1 Bool) (?S1 Bool) (?T1 Bool) (?U1 Bool) (?V1 Bool) (?W1 Bool) (?X1 Bool) (?Y1 Bool) (?Z1 Bool) (?A2 Real) (?B2 Real) (?C2 Real) (?D2 Real) (?E2 Bool) (?F2 Bool) (?G2 Bool) (?H2 Bool) (?I2 Bool) (?J2 Bool) (?K2 Real) (?L2 Bool) (?M2 Real) (?N2 Real) (?O2 Bool) (?P2 Real) (?Q2 Real) (?R2 Bool) (?S2 Real) (?T2 Bool) (?U2 Bool) (?V2 Bool) (?W2 Bool) (?X2 Bool) )(let (($x313176 (= ?J2 (and ?X2 ?W2))))
(let (($x258641 (or (not ?E) (and ?F ?G (not ?H)))))
(let (($x302903 (or (not ?E) ?G)))
(let (($x221844 (not ?I)))
(let (($x842821 (or $x221844 (and ?E ?J (<= ?K ?L) (>= ?K ?L)) (and ?F ?M ?H (<= ?K ?B) (>= ?K ?B)))))
(let (($x81139 (or $x221844 (and ?J (not ?M)) (and ?M (not ?J)))))
(let (($x536727 (or (not ?N) (and ?I ?O (not ?P)))))
(let (($x260681 (or (not ?N) ?O)))
(let (($x644287 (not ?Q)))
(let (($x831389 (or $x644287 (and ?N ?R (<= ?S ?T) (>= ?S ?T)) (and ?I ?U ?P (<= ?S ?A) (>= ?S ?A)))))
(let (($x375246 (or $x644287 (and ?R (not ?U)) (and ?U (not ?R)))))
(let (($x324028 (or (not ?V) (and ?Q ?W ?X))))
(let (($x103289 (or (not ?V) ?W)))
(let (($x539954 (not ?Y)))
(let (($x897678 (or $x539954 (and ?V ?Z ?A1 (<= ?B1 ?C) (>= ?B1 ?C)) (and ?Q ?C1 (not ?X) (<= ?B1 1.0) (>= ?B1 1.0)))))
(let (($x892704 (or $x539954 (and ?Z (not ?C1)) (and ?C1 (not ?Z)))))
(let (($x873903 (or (not ?D1) (and ?Y ?E1 (not ?F1)))))
(let (($x265533 (or (not ?D1) ?E1)))
(let (($x456088 (or (not ?G1) (and ?D1 ?H1 (<= ?I1 ?J1) (>= ?I1 ?J1)) (and ?Y ?K1 ?F1 (<= ?I1 ?K) (>= ?I1 ?K)))))
(let (($x306929 (or (not ?G1) (and ?H1 (not ?K1)) (and ?K1 (not ?H1)))))
(let (($x305850 (or (not ?L1) (and ?G1 ?M1 (not ?N1)))))
(let (($x571595 (or (not ?L1) ?M1)))
(let (($x269720 (or (not ?O1) (and ?L1 ?P1 ?F1))))
(let (($x33729 (or (not ?O1) ?P1)))
(let (($x302901 (or (not ?Q1) (and ?L1 ?R1 (not ?F1)))))
(let (($x207885 (or (not ?Q1) ?R1)))
(let (($x37353 (or (not ?S1) (and ?O1 ?T1 ?U1))))
(let (($x503833 (or (not ?S1) ?T1)))
(let (($x215571 (or (not ?V1) (and ?Q1 ?W1 ?X1))))
(let (($x402953 (or (not ?V1) ?W1)))
(let (($x878445 (and ?V ?I2 (not ?A1) (<= ?A2 0.0) (>= ?A2 0.0) (<= ?B2 ?K) (>= ?B2 ?K) (<= ?C2 0.0) (>= ?C2 0.0))))
(let (($x549177 (>= ?C2 ?D)))
(let (($x260819 (<= ?C2 ?D)))
(let (($x873562 (>= ?B2 ?I1)))
(let (($x381025 (<= ?B2 ?I1)))
(let (($x622121 (>= ?A2 ?B1)))
(let (($x512639 (<= ?A2 ?B1)))
(let (($x908238 (and ?Q1 ?G2 (not ?X1) $x512639 $x622121 $x381025 $x873562 (<= ?C2 0.0) (>= ?C2 0.0))))
(let (($x258889 (not ?Y1)))
(let (($x155838 (or $x258889 (and ?S1 ?Z1 $x512639 $x622121 $x381025 $x873562 (<= ?C2 ?D2) (>= ?C2 ?D2)) (and ?O1 ?E2 (not ?U1) $x512639 $x622121 $x381025 $x873562 $x260819 $x549177) (and ?V1 ?F2 $x512639 $x622121 $x381025 $x873562 $x260819 $x549177) $x908238 (and ?G1 ?H2 ?N1 $x512639 $x622121 $x381025 $x873562 $x260819 $x549177) $x878445)))
(let (($x477834 (or $x258889 (and ?Z1 (not ?E2) (not ?F2) (not ?G2) (not ?H2) (not ?I2)) (and ?E2 (not ?Z1) (not ?F2) (not ?G2) (not ?H2) (not ?I2)) (and ?F2 (not ?Z1) (not ?E2) (not ?G2) (not ?H2) (not ?I2)) (and ?G2 (not ?Z1) (not ?E2) (not ?F2) (not ?H2) (not ?I2)) (and ?H2 (not ?Z1) (not ?E2) (not ?F2) (not ?G2) (not ?I2)) (and ?I2 (not ?Z1) (not ?E2) (not ?F2) (not ?G2) (not ?H2)))))
(let (($x567601 (= ?Y1 true)))
(let (($x837190 (= ?J2 true)))
(let (($x875441 (= ?H (= ?K2 0.0))))
(let (($x200028 (= ?M2 (ite ?L2 1.0 0.0))))
(let (($x16623 (= ?P (= ?N2 0.0))))
(let (($x568670 (= ?T (ite ?O2 1.0 0.0))))
(let (($x623034 (= ?X (= ?P2 0.0))))
(let (($x454028 (= ?A1 (= ?Q2 0.0))))
(let (($x136160 (= ?R2 (not (<= ?K 0.0)))))
(let (($x581954 (= ?S2 (+ (~ 1.0) ?K))))
(let (($x562223 (= ?J1 (ite ?R2 ?S2 ?K))))
(let (($x926815 (= ?N1 (= ?B1 0.0))))
(let (($x621779 (= ?U1 (not (<= ?I1 1.0)))))
(let (($x355919 (= ?X1 (= ?I1 0.0))))
(let (($x158060 (= ?T2 (= ?S 0.0))))
(let (($x100587 (= ?U2 (= ?S 0.0))))
(let (($x466098 (= ?V2 (= ?B2 2.0))))
(let (($x399679 (= ?W2 (= ?C2 0.0))))
(let (($x229968 (= ?X2 (and ?V2 ?U2))))
(let (($x409749 (|cp-rel-bb1.i.i| ?A ?B ?C ?D)))
(let (($x423823 (and $x409749 $x229968 $x399679 $x466098 $x100587 (= ?D2 (ite ?T2 1.0 ?D)) $x158060 $x355919 $x621779 $x926815 $x562223 $x581954 $x136160 (= ?F1 (= ?D 0.0)) $x454028 $x623034 $x568670 (= ?O2 (= ?A 0.0)) $x16623 (= ?L (+ ?M2 ?B)) $x200028 (= ?L2 (not (<= 2.0 ?B))) $x875441 $x837190 $x567601 $x477834 $x155838 $x402953 $x215571 $x503833 $x37353 $x207885 $x302901 $x33729 $x269720 $x571595 $x305850 $x306929 $x456088 $x265533 $x873903 $x892704 $x897678 $x103289 $x324028 $x375246 $x831389 $x260681 $x536727 $x81139 $x842821 $x302903 $x258641 $x313176)))
(=> $x423823 |cp-rel-bb2.i.i34.i.i|))))))))))))))))))))))))))))))))))))))))))))))))))))))))))))))))
)
(assert (not cp-rel-bb2.i.i34.i.i))
(check-sat)
